nN = 5;
nR = 20;
nH = 2;

a = [[12, 24, 13, 11, 20, 12, 19, 17, 19, 22, 19, 22, 13, 12, 10, 12, 13, 13, 25, 16], [25, 24, 22, 10, 21, 17, 21, 17, 13, 15, 15, 15, 20, 20, 19, 14, 17, 14, 12, 20], [21, 11, 15, 16, 11, 14, 22, 22, 12, 17, 15, 15, 11, 18, 13, 19, 20, 25, 13, 13], [24, 15, 19, 17, 24, 20, 21, 18, 25, 15, 14, 23, 10, 11, 23, 22, 18, 19, 24, 22], [14, 18, 20, 14, 15, 25, 13, 19, 17, 10, 18, 13, 21, 17, 22, 18, 17, 10, 20, 12]];
c = [[[0, 0, 0, 0, 0, 0, 0, 0, 0, 0, 0, 0, 0, 0, 0, 0, 0, 0, 0, 0], [33, 32, 48, 48, 40, 35, 36, 50, 44, 49, 39, 45, 48, 31, 41, 37, 30, 41, 40, 45], [46, 40, 44, 44, 38, 39, 47, 48, 31, 42, 47, 40, 49, 47, 30, 50, 35, 35, 41, 45], [35, 40, 42, 39, 45, 34, 38, 36, 37, 49, 41, 31, 50, 50, 46, 45, 40, 50, 49, 49], [31, 41, 39, 44, 43, 49, 32, 35, 34, 42, 32, 40, 47, 50, 37, 45, 34, 47, 46, 31]], [[0, 0, 0, 0, 0, 0, 0, 0, 0, 0, 0, 0, 0, 0, 0, 0, 0, 0, 0, 0], [0, 0, 0, 0, 0, 0, 0, 0, 0, 0, 0, 0, 0, 0, 0, 0, 0, 0, 0, 0], [45, 40, 38, 30, 49, 37, 41, 40, 34, 31, 30, 34, 38, 50, 44, 48, 45, 45, 38, 35], [47, 43, 31, 40, 38, 49, 33, 39, 36, 41, 37, 43, 31, 50, 48, 30, 43, 45, 37, 43], [46, 49, 33, 31, 43, 50, 46, 32, 31, 41, 31, 38, 39, 40, 37, 31, 46, 46, 41, 42]], [[0, 0, 0, 0, 0, 0, 0, 0, 0, 0, 0, 0, 0, 0, 0, 0, 0, 0, 0, 0], [0, 0, 0, 0, 0, 0, 0, 0, 0, 0, 0, 0, 0, 0, 0, 0, 0, 0, 0, 0], [0, 0, 0, 0, 0, 0, 0, 0, 0, 0, 0, 0, 0, 0, 0, 0, 0, 0, 0, 0], [30, 48, 47, 42, 30, 37, 34, 37, 40, 38, 36, 34, 44, 41, 37, 46, 34, 49, 43, 43], [32, 30, 46, 36, 33, 40, 43, 37, 39, 35, 40, 45, 38, 34, 41, 31, 35, 33, 50, 38]], [[0, 0, 0, 0, 0, 0, 0, 0, 0, 0, 0, 0, 0, 0, 0, 0, 0, 0, 0, 0], [0, 0, 0, 0, 0, 0, 0, 0, 0, 0, 0, 0, 0, 0, 0, 0, 0, 0, 0, 0], [0, 0, 0, 0, 0, 0, 0, 0, 0, 0, 0, 0, 0, 0, 0, 0, 0, 0, 0, 0], [0, 0, 0, 0, 0, 0, 0, 0, 0, 0, 0, 0, 0, 0, 0, 0, 0, 0, 0, 0], [48, 43, 48, 33, 36, 47, 45, 41, 38, 50, 33, 50, 31, 46, 41, 38, 32, 45, 49, 43]], [[0, 0, 0, 0, 0, 0, 0, 0, 0, 0, 0, 0, 0, 0, 0, 0, 0, 0, 0, 0], [0, 0, 0, 0, 0, 0, 0, 0, 0, 0, 0, 0, 0, 0, 0, 0, 0, 0, 0, 0], [0, 0, 0, 0, 0, 0, 0, 0, 0, 0, 0, 0, 0, 0, 0, 0, 0, 0, 0, 0], [0, 0, 0, 0, 0, 0, 0, 0, 0, 0, 0, 0, 0, 0, 0, 0, 0, 0, 0, 0], [0, 0, 0, 0, 0, 0, 0, 0, 0, 0, 0, 0, 0, 0, 0, 0, 0, 0, 0, 0]]];

q = [[[13, 109], [6, 117], [12, 121], [16, 105], [23, 125], [15, 108], [20, 122], [9, 120], [6, 124], [18, 121], [21, 114], [21, 122], [13, 120], [9, 125], [23, 110], [19, 124], [16, 106], [9, 116], [25, 123], [11, 116]], [[16, 122], [9, 122], [9, 125], [16, 113], [11, 120], [17, 112], [21, 121], [21, 113], [23, 105], [12, 115], [6, 116], [20, 118], [20, 124], [19, 111], [12, 115], [20, 114], [21, 121], [24, 123], [13, 109], [6, 107]], [[21, 105], [7, 106], [6, 109], [7, 116], [6, 122], [15, 121], [18, 125], [7, 125], [24, 121], [12, 107], [24, 106], [8, 119], [14, 117], [25, 112], [21, 107], [21, 124], [22, 111], [23, 105], [16, 115], [19, 110]], [[10, 110], [23, 116], [16, 116], [8, 114], [11, 113], [14, 114], [5, 110], [25, 120], [23, 113], [11, 116], [25, 106], [18, 122], [11, 123], [14, 113], [17, 122], [22, 116], [15, 122], [23, 122], [7, 123], [18, 121]], [[16, 110], [14, 110], [17, 117], [15, 114], [8, 118], [24, 122], [16, 122], [23, 116], [6, 119], [20, 116], [7, 106], [12, 117], [19, 109], [7, 122], [19, 117], [15, 112], [16, 119], [20, 109], [25, 113], [18, 114]]];
Q = [[49, 376], [51, 373], [51, 366], [52, 374], [52, 369]];
